132
86
43
75
68
2
120
50
64
15
61
22
64
7
42
74
71
25
49
29
110
87
80
35
41
92
42
99
62
64
126
72
129
127
43
43
86
25
75
55
69
108
11
35
50
15
12
109
57
42
132
69
60
90
59
30
4
84
1
71
112
99
30
95
51
82
98
105
126
55
43
122
27
110
126
14
10
85
49
75
105
94
16
104
44
19
100
4
65
119
92
31
118
29
76
99
57
4
15
88
